10J3M/DAT/10J3MNLA-12.dat
10 3
26.1683 684.7799
25.952 673.5063
24.1963 585.4609
18.1319 328.7658
32.994 1088.604
25.0479 627.3973
24.4818 599.3585
18.2076 331.5167
26.6722 711.4063
31.4623 989.8763
2206.8907