10J3M/SOL/10J3MNLA-12.sol
solution status: optimal solution found
objective value:                     84.0151333333333
x#1#2                               0.655987244022135 	(obj:0)
x#1#3                               0.344012755977865 	(obj:0)
x#2#3                                               1 	(obj:0)
x#3#2                                               1 	(obj:0)
x#4#1                               0.583231030704708 	(obj:0)
x#4#2                               0.416768969295292 	(obj:0)
x#5#1                                               1 	(obj:0)
x#6#3                                               1 	(obj:0)
x#7#2                               0.262064349091496 	(obj:0)
x#7#3                               0.737935650908504 	(obj:0)
x#8#2                                               1 	(obj:0)
x#9#1                               0.733443154666288 	(obj:0)
x#9#3                               0.266556845333712 	(obj:0)
x#10#1                                              1 	(obj:0)
z                                    84.0151333333333 	(obj:1)
